N = 336;
M = 828;
Edge_Start = [1, 2, 3, 4, 5, 5, 6, 7, 7, 9, 9, 10, 11, 11, 12, 13, 15, 16, 17, 18, 19, 19, 20, 21, 21, 22, 23, 23, 25, 26, 27, 27, 28, 29, 29, 30, 31, 31, 32, 33, 34, 35, 36, 37, 37, 38, 39, 39, 40, 41, 41, 42, 43, 43, 44, 45, 45, 46, 47, 47, 48, 49, 49, 50, 51, 52, 53, 54, 54, 55, 56, 56, 57, 58, 58, 59, 60, 60, 61, 62, 62, 63, 64, 64, 65, 66, 67, 68, 68, 70, 71, 72, 73, 74, 75, 76, 76, 78, 79, 80, 81, 81, 82, 83, 84, 85, 86, 87, 88, 89, 89, 91, 91, 92, 93, 93, 94, 95, 95, 96, 97, 98, 99, 99, 100, 101, 101, 102, 103, 104, 104, 105, 106, 106, 108, 109, 110, 110, 111, 112, 112, 113, 114, 116, 116, 117, 118, 118, 119, 120, 120, 121, 122, 124, 125, 126, 127, 128, 128, 130, 131, 131, 132, 133, 133, 134, 135, 135, 136, 138, 139, 139, 140, 141, 141, 142, 143, 145, 145, 146, 147, 147, 149, 149, 150, 151, 151, 153, 154, 155, 156, 156, 158, 158, 159, 160, 160, 161, 162, 162, 163, 164, 164, 165, 166, 166, 167, 168, 170, 170, 171, 172, 172, 173, 174, 174, 175, 176, 176, 177, 178, 178, 179, 180, 180, 182, 183, 183, 184, 185, 185, 186, 187, 187, 188, 189, 189, 190, 191, 191, 192, 193, 193, 194, 195, 195, 196, 197, 198, 199, 199, 200, 201, 201, 202, 203, 203, 204, 205, 205, 206, 207, 208, 208, 209, 210, 210, 211, 212, 212, 213, 214, 214, 215, 216, 216, 217, 218, 219, 220, 220, 221, 222, 223, 224, 224, 226, 226, 227, 228, 228, 229, 230, 230, 231, 232, 232, 234, 235, 236, 237, 237, 238, 239, 239, 240, 241, 241, 242, 243, 243, 244, 245, 246, 247, 248, 249, 249, 250, 251, 251, 252, 253, 255, 256, 257, 257, 258, 259, 260, 260, 262, 262, 263, 265, 266, 267, 268, 268, 269, 270, 270, 271, 272, 273, 274, 274, 275, 276, 276, 278, 278, 280, 280, 281, 282, 282, 283, 284, 284, 286, 287, 287, 288, 289, 289, 290, 291, 291, 292, 293, 294, 295, 296, 297, 297, 298, 299, 301, 301, 302, 303, 303, 304, 306, 307, 307, 308, 309, 309, 310, 311, 312, 313, 314, 315, 316, 317, 318, 319, 321, 322, 323, 324, 326, 327, 328, 329, 330, 331, 332, 333, 334, 335, 2, 3, 28, 5, 6, 30, 7, 8, 32, 10, 34, 11, 12, 36, 13, 14, 40, 17, 42, 19, 20, 44, 21, 22, 46, 23, 24, 48, 50, 27, 28, 53, 29, 30, 55, 31, 32, 57, 33, 34, 35, 36, 37, 38, 63, 39, 40, 65, 41, 42, 67, 43, 44, 69, 45, 46, 71, 47, 48, 73, 49, 50, 75, 51, 77, 78, 54, 55, 80, 56, 57, 82, 58, 59, 84, 60, 61, 86, 62, 63, 88, 64, 65, 90, 66, 67, 68, 69, 94, 96, 72, 98, 74, 75, 76, 77, 102, 79, 105, 81, 82, 107, 83, 84, 85, 86, 87, 113, 89, 90, 115, 92, 117, 93, 94, 119, 95, 96, 121, 97, 98, 99, 100, 125, 101, 102, 127, 103, 129, 105, 130, 106, 107, 132, 109, 110, 111, 136, 112, 113, 138, 114, 115, 117, 142, 118, 119, 144, 120, 121, 146, 122, 123, 125, 126, 127, 128, 129, 154, 131, 132, 157, 133, 134, 159, 135, 136, 161, 137, 139, 140, 165, 141, 142, 167, 143, 169, 146, 171, 147, 148, 173, 150, 175, 151, 152, 177, 179, 155, 181, 157, 182, 159, 184, 160, 161, 186, 162, 163, 188, 164, 165, 190, 166, 167, 192, 168, 194, 171, 196, 172, 173, 198, 174, 175, 200, 176, 177, 202, 178, 179, 204, 180, 181, 206, 183, 184, 209, 185, 186, 211, 187, 188, 213, 189, 190, 215, 191, 192, 217, 193, 194, 219, 195, 196, 221, 197, 223, 199, 200, 225, 201, 202, 227, 203, 204, 229, 205, 206, 231, 207, 233, 209, 234, 210, 211, 236, 212, 213, 238, 214, 215, 240, 216, 217, 242, 218, 244, 220, 221, 246, 222, 223, 224, 225, 250, 227, 252, 228, 229, 254, 230, 231, 256, 232, 233, 258, 235, 261, 237, 238, 263, 239, 240, 265, 241, 242, 267, 243, 244, 269, 245, 271, 247, 248, 249, 250, 275, 251, 252, 277, 253, 279, 256, 257, 258, 283, 259, 285, 261, 286, 263, 288, 264, 266, 267, 268, 269, 294, 270, 271, 296, 272, 273, 274, 275, 300, 276, 277, 302, 279, 304, 281, 306, 282, 283, 308, 284, 285, 310, 287, 288, 312, 289, 290, 314, 291, 292, 316, 293, 318, 295, 320, 297, 298, 322, 299, 324, 302, 326, 303, 304, 328, 305, 307, 308, 332, 309, 310, 334, 311, 336, 313, 314, 315, 316, 317, 318, 319, 320, 322, 323, 324, 325, 327, 328, 329, 330, 331, 332, 333, 334, 335, 336];
Edge_End = [2, 3, 28, 5, 6, 30, 7, 8, 32, 10, 34, 11, 12, 36, 13, 14, 40, 17, 42, 19, 20, 44, 21, 22, 46, 23, 24, 48, 50, 27, 28, 53, 29, 30, 55, 31, 32, 57, 33, 34, 35, 36, 37, 38, 63, 39, 40, 65, 41, 42, 67, 43, 44, 69, 45, 46, 71, 47, 48, 73, 49, 50, 75, 51, 77, 78, 54, 55, 80, 56, 57, 82, 58, 59, 84, 60, 61, 86, 62, 63, 88, 64, 65, 90, 66, 67, 68, 69, 94, 96, 72, 98, 74, 75, 76, 77, 102, 79, 105, 81, 82, 107, 83, 84, 85, 86, 87, 113, 89, 90, 115, 92, 117, 93, 94, 119, 95, 96, 121, 97, 98, 99, 100, 125, 101, 102, 127, 103, 129, 105, 130, 106, 107, 132, 109, 110, 111, 136, 112, 113, 138, 114, 115, 117, 142, 118, 119, 144, 120, 121, 146, 122, 123, 125, 126, 127, 128, 129, 154, 131, 132, 157, 133, 134, 159, 135, 136, 161, 137, 139, 140, 165, 141, 142, 167, 143, 169, 146, 171, 147, 148, 173, 150, 175, 151, 152, 177, 179, 155, 181, 157, 182, 159, 184, 160, 161, 186, 162, 163, 188, 164, 165, 190, 166, 167, 192, 168, 194, 171, 196, 172, 173, 198, 174, 175, 200, 176, 177, 202, 178, 179, 204, 180, 181, 206, 183, 184, 209, 185, 186, 211, 187, 188, 213, 189, 190, 215, 191, 192, 217, 193, 194, 219, 195, 196, 221, 197, 223, 199, 200, 225, 201, 202, 227, 203, 204, 229, 205, 206, 231, 207, 233, 209, 234, 210, 211, 236, 212, 213, 238, 214, 215, 240, 216, 217, 242, 218, 244, 220, 221, 246, 222, 223, 224, 225, 250, 227, 252, 228, 229, 254, 230, 231, 256, 232, 233, 258, 235, 261, 237, 238, 263, 239, 240, 265, 241, 242, 267, 243, 244, 269, 245, 271, 247, 248, 249, 250, 275, 251, 252, 277, 253, 279, 256, 257, 258, 283, 259, 285, 261, 286, 263, 288, 264, 266, 267, 268, 269, 294, 270, 271, 296, 272, 273, 274, 275, 300, 276, 277, 302, 279, 304, 281, 306, 282, 283, 308, 284, 285, 310, 287, 288, 312, 289, 290, 314, 291, 292, 316, 293, 318, 295, 320, 297, 298, 322, 299, 324, 302, 326, 303, 304, 328, 305, 307, 308, 332, 309, 310, 334, 311, 336, 313, 314, 315, 316, 317, 318, 319, 320, 322, 323, 324, 325, 327, 328, 329, 330, 331, 332, 333, 334, 335, 336, 1, 2, 3, 4, 5, 5, 6, 7, 7, 9, 9, 10, 11, 11, 12, 13, 15, 16, 17, 18, 19, 19, 20, 21, 21, 22, 23, 23, 25, 26, 27, 27, 28, 29, 29, 30, 31, 31, 32, 33, 34, 35, 36, 37, 37, 38, 39, 39, 40, 41, 41, 42, 43, 43, 44, 45, 45, 46, 47, 47, 48, 49, 49, 50, 51, 52, 53, 54, 54, 55, 56, 56, 57, 58, 58, 59, 60, 60, 61, 62, 62, 63, 64, 64, 65, 66, 67, 68, 68, 70, 71, 72, 73, 74, 75, 76, 76, 78, 79, 80, 81, 81, 82, 83, 84, 85, 86, 87, 88, 89, 89, 91, 91, 92, 93, 93, 94, 95, 95, 96, 97, 98, 99, 99, 100, 101, 101, 102, 103, 104, 104, 105, 106, 106, 108, 109, 110, 110, 111, 112, 112, 113, 114, 116, 116, 117, 118, 118, 119, 120, 120, 121, 122, 124, 125, 126, 127, 128, 128, 130, 131, 131, 132, 133, 133, 134, 135, 135, 136, 138, 139, 139, 140, 141, 141, 142, 143, 145, 145, 146, 147, 147, 149, 149, 150, 151, 151, 153, 154, 155, 156, 156, 158, 158, 159, 160, 160, 161, 162, 162, 163, 164, 164, 165, 166, 166, 167, 168, 170, 170, 171, 172, 172, 173, 174, 174, 175, 176, 176, 177, 178, 178, 179, 180, 180, 182, 183, 183, 184, 185, 185, 186, 187, 187, 188, 189, 189, 190, 191, 191, 192, 193, 193, 194, 195, 195, 196, 197, 198, 199, 199, 200, 201, 201, 202, 203, 203, 204, 205, 205, 206, 207, 208, 208, 209, 210, 210, 211, 212, 212, 213, 214, 214, 215, 216, 216, 217, 218, 219, 220, 220, 221, 222, 223, 224, 224, 226, 226, 227, 228, 228, 229, 230, 230, 231, 232, 232, 234, 235, 236, 237, 237, 238, 239, 239, 240, 241, 241, 242, 243, 243, 244, 245, 246, 247, 248, 249, 249, 250, 251, 251, 252, 253, 255, 256, 257, 257, 258, 259, 260, 260, 262, 262, 263, 265, 266, 267, 268, 268, 269, 270, 270, 271, 272, 273, 274, 274, 275, 276, 276, 278, 278, 280, 280, 281, 282, 282, 283, 284, 284, 286, 287, 287, 288, 289, 289, 290, 291, 291, 292, 293, 294, 295, 296, 297, 297, 298, 299, 301, 301, 302, 303, 303, 304, 306, 307, 307, 308, 309, 309, 310, 311, 312, 313, 314, 315, 316, 317, 318, 319, 321, 322, 323, 324, 326, 327, 328, 329, 330, 331, 332, 333, 334, 335];
L = [1, 6, 19, 16, 10, 2, 11, 13, 18, 15, 1, 8, 5, 2, 4, 4, 15, 16, 10, 9, 18, 7, 6, 19, 10, 3, 1, 3, 4, 16, 4, 15, 10, 10, 17, 9, 12, 6, 11, 11, 14, 15, 9, 17, 9, 5, 12, 11, 3, 11, 19, 3, 12, 2, 16, 7, 9, 4, 4, 17, 1, 6, 16, 16, 2, 16, 8, 14, 11, 11, 10, 14, 16, 15, 10, 10, 2, 17, 7, 18, 11, 2, 1, 1, 18, 11, 14, 17, 9, 1, 9, 7, 5, 12, 13, 3, 11, 14, 11, 14, 6, 8, 1, 3, 17, 10, 17, 3, 7, 5, 7, 5, 5, 16, 11, 17, 19, 5, 19, 17, 10, 8, 9, 2, 13, 2, 8, 17, 10, 6, 15, 4, 7, 10, 12, 15, 1, 14, 10, 16, 19, 8, 11, 1, 9, 16, 18, 14, 13, 2, 16, 11, 5, 17, 8, 1, 8, 4, 11, 9, 1, 3, 18, 17, 14, 12, 19, 5, 2, 5, 1, 5, 16, 14, 16, 5, 15, 10, 17, 6, 16, 1, 7, 3, 12, 9, 15, 14, 11, 12, 13, 15, 8, 14, 10, 10, 13, 2, 16, 14, 14, 4, 16, 6, 3, 10, 12, 18, 7, 7, 2, 19, 12, 5, 17, 19, 13, 19, 6, 10, 11, 8, 7, 11, 13, 11, 8, 16, 7, 9, 15, 1, 14, 9, 7, 6, 2, 10, 1, 8, 15, 3, 2, 5, 10, 12, 1, 15, 10, 9, 17, 7, 10, 11, 6, 1, 4, 9, 17, 13, 14, 13, 9, 13, 14, 17, 16, 3, 14, 14, 18, 17, 19, 1, 14, 16, 4, 10, 4, 3, 17, 5, 7, 8, 9, 4, 1, 18, 11, 7, 18, 7, 14, 1, 15, 18, 12, 14, 19, 1, 5, 1, 5, 3, 15, 17, 6, 5, 4, 9, 6, 9, 15, 10, 8, 17, 18, 12, 13, 11, 2, 3, 9, 16, 3, 18, 15, 14, 9, 10, 14, 12, 10, 3, 12, 17, 1, 2, 9, 3, 15, 15, 1, 7, 10, 14, 5, 18, 2, 2, 10, 18, 15, 15, 3, 1, 6, 12, 10, 16, 1, 5, 5, 10, 7, 19, 8, 7, 3, 13, 16, 1, 1, 15, 4, 19, 16, 14, 6, 7, 7, 16, 14, 7, 10, 12, 4, 2, 9, 7, 3, 6, 2, 19, 10, 14, 11, 2, 14, 18, 5, 12, 4, 16, 6, 4, 11, 9, 16, 19, 10, 8, 18, 10, 1, 6, 19, 16, 10, 2, 11, 13, 18, 15, 1, 8, 5, 2, 4, 4, 15, 16, 10, 9, 18, 7, 6, 19, 10, 3, 1, 3, 4, 16, 4, 15, 10, 10, 17, 9, 12, 6, 11, 11, 14, 15, 9, 17, 9, 5, 12, 11, 3, 11, 19, 3, 12, 2, 16, 7, 9, 4, 4, 17, 1, 6, 16, 16, 2, 16, 8, 14, 11, 11, 10, 14, 16, 15, 10, 10, 2, 17, 7, 18, 11, 2, 1, 1, 18, 11, 14, 17, 9, 1, 9, 7, 5, 12, 13, 3, 11, 14, 11, 14, 6, 8, 1, 3, 17, 10, 17, 3, 7, 5, 7, 5, 5, 16, 11, 17, 19, 5, 19, 17, 10, 8, 9, 2, 13, 2, 8, 17, 10, 6, 15, 4, 7, 10, 12, 15, 1, 14, 10, 16, 19, 8, 11, 1, 9, 16, 18, 14, 13, 2, 16, 11, 5, 17, 8, 1, 8, 4, 11, 9, 1, 3, 18, 17, 14, 12, 19, 5, 2, 5, 1, 5, 16, 14, 16, 5, 15, 10, 17, 6, 16, 1, 7, 3, 12, 9, 15, 14, 11, 12, 13, 15, 8, 14, 10, 10, 13, 2, 16, 14, 14, 4, 16, 6, 3, 10, 12, 18, 7, 7, 2, 19, 12, 5, 17, 19, 13, 19, 6, 10, 11, 8, 7, 11, 13, 11, 8, 16, 7, 9, 15, 1, 14, 9, 7, 6, 2, 10, 1, 8, 15, 3, 2, 5, 10, 12, 1, 15, 10, 9, 17, 7, 10, 11, 6, 1, 4, 9, 17, 13, 14, 13, 9, 13, 14, 17, 16, 3, 14, 14, 18, 17, 19, 1, 14, 16, 4, 10, 4, 3, 17, 5, 7, 8, 9, 4, 1, 18, 11, 7, 18, 7, 14, 1, 15, 18, 12, 14, 19, 1, 5, 1, 5, 3, 15, 17, 6, 5, 4, 9, 6, 9, 15, 10, 8, 17, 18, 12, 13, 11, 2, 3, 9, 16, 3, 18, 15, 14, 9, 10, 14, 12, 10, 3, 12, 17, 1, 2, 9, 3, 15, 15, 1, 7, 10, 14, 5, 18, 2, 2, 10, 18, 15, 15, 3, 1, 6, 12, 10, 16, 1, 5, 5, 10, 7, 19, 8, 7, 3, 13, 16, 1, 1, 15, 4, 19, 16, 14, 6, 7, 7, 16, 14, 7, 10, 12, 4, 2, 9, 7, 3, 6, 2, 19, 10, 14, 11, 2, 14, 18, 5, 12, 4, 16, 6, 4, 11, 9, 16, 19, 10, 8, 18, 10];
T = [1, 13, 20, 18, 21, 1, 6, 13, 19, 10, 1, 3, 1, 6, 7, 1, 14, 11, 18, 13, 20, 2, 4, 17, 8, 3, 1, 6, 5, 19, 3, 13, 7, 8, 29, 1, 9, 5, 16, 5, 13, 16, 11, 21, 7, 4, 4, 15, 2, 10, 16, 3, 8, 1, 14, 1, 5, 7, 1, 14, 8, 10, 6, 18, 3, 9, 11, 9, 19, 9, 11, 12, 19, 19, 6, 5, 13, 8, 10, 17, 7, 1, 4, 4, 21, 8, 8, 28, 7, 2, 9, 4, 11, 20, 18, 1, 14, 7, 6, 13, 3, 4, 1, 1, 25, 12, 20, 5, 14, 2, 4, 1, 9, 16, 18, 18, 15, 5, 30, 16, 5, 9, 14, 3, 21, 3, 12, 14, 13, 7, 20, 1, 6, 15, 11, 11, 1, 8, 8, 20, 14, 8, 15, 1, 9, 13, 18, 12, 3, 2, 20, 1, 8, 17, 9, 4, 4, 8, 6, 8, 9, 6, 12, 4, 14, 17, 12, 1, 5, 1, 1, 3, 8, 10, 17, 9, 17, 13, 24, 6, 11, 1, 2, 6, 8, 4, 18, 9, 6, 13, 16, 10, 10, 16, 14, 8, 10, 1, 15, 17, 19, 10, 10, 1, 6, 10, 8, 12, 3, 1, 1, 8, 13, 6, 16, 24, 15, 28, 13, 12, 2, 9, 3, 17, 15, 9, 5, 4, 1, 14, 9, 5, 2, 1, 9, 18, 1, 11, 2, 13, 6, 1, 1, 1, 5, 3, 3, 12, 7, 8, 22, 3, 7, 17, 9, 1, 2, 11, 17, 14, 2, 26, 15, 18, 10, 29, 14, 1, 16, 11, 18, 12, 20, 1, 18, 19, 1, 7, 6, 3, 19, 2, 4, 7, 8, 2, 1, 22, 1, 7, 14, 4, 22, 1, 6, 17, 18, 16, 16, 3, 1, 2, 1, 7, 17, 17, 5, 4, 13, 8, 3, 8, 9, 10, 14, 24, 15, 5, 11, 12, 1, 5, 5, 8, 1, 5, 11, 6, 19, 5, 17, 22, 15, 1, 10, 17, 1, 1, 11, 5, 16, 14, 3, 6, 1, 17, 13, 20, 1, 4, 14, 12, 23, 10, 1, 7, 12, 16, 8, 21, 1, 6, 15, 10, 12, 24, 9, 6, 9, 12, 16, 1, 1, 14, 9, 14, 22, 12, 3, 9, 1, 5, 20, 8, 2, 15, 1, 1, 8, 1, 4, 1, 2, 13, 14, 13, 5, 1, 19, 15, 6, 7, 2, 16, 13, 12, 6, 14, 18, 13, 12, 14, 10, 12, 1, 13, 20, 18, 21, 1, 6, 13, 19, 10, 1, 3, 1, 6, 7, 1, 14, 11, 18, 13, 20, 2, 4, 17, 8, 3, 1, 6, 5, 19, 3, 13, 7, 8, 29, 1, 9, 5, 16, 5, 13, 16, 11, 21, 7, 4, 4, 15, 2, 10, 16, 3, 8, 1, 14, 1, 5, 7, 1, 14, 8, 10, 6, 18, 3, 9, 11, 9, 19, 9, 11, 12, 19, 19, 6, 5, 13, 8, 10, 17, 7, 1, 4, 4, 21, 8, 8, 28, 7, 2, 9, 4, 11, 20, 18, 1, 14, 7, 6, 13, 3, 4, 1, 1, 25, 12, 20, 5, 14, 2, 4, 1, 9, 16, 18, 18, 15, 5, 30, 16, 5, 9, 14, 3, 21, 3, 12, 14, 13, 7, 20, 1, 6, 15, 11, 11, 1, 8, 8, 20, 14, 8, 15, 1, 9, 13, 18, 12, 3, 2, 20, 1, 8, 17, 9, 4, 4, 8, 6, 8, 9, 6, 12, 4, 14, 17, 12, 1, 5, 1, 1, 3, 8, 10, 17, 9, 17, 13, 24, 6, 11, 1, 2, 6, 8, 4, 18, 9, 6, 13, 16, 10, 10, 16, 14, 8, 10, 1, 15, 17, 19, 10, 10, 1, 6, 10, 8, 12, 3, 1, 1, 8, 13, 6, 16, 24, 15, 28, 13, 12, 2, 9, 3, 17, 15, 9, 5, 4, 1, 14, 9, 5, 2, 1, 9, 18, 1, 11, 2, 13, 6, 1, 1, 1, 5, 3, 3, 12, 7, 8, 22, 3, 7, 17, 9, 1, 2, 11, 17, 14, 2, 26, 15, 18, 10, 29, 14, 1, 16, 11, 18, 12, 20, 1, 18, 19, 1, 7, 6, 3, 19, 2, 4, 7, 8, 2, 1, 22, 1, 7, 14, 4, 22, 1, 6, 17, 18, 16, 16, 3, 1, 2, 1, 7, 17, 17, 5, 4, 13, 8, 3, 8, 9, 10, 14, 24, 15, 5, 11, 12, 1, 5, 5, 8, 1, 5, 11, 6, 19, 5, 17, 22, 15, 1, 10, 17, 1, 1, 11, 5, 16, 14, 3, 6, 1, 17, 13, 20, 1, 4, 14, 12, 23, 10, 1, 7, 12, 16, 8, 21, 1, 6, 15, 10, 12, 24, 9, 6, 9, 12, 16, 1, 1, 14, 9, 14, 22, 12, 3, 9, 1, 5, 20, 8, 2, 15, 1, 1, 8, 1, 4, 1, 2, 13, 14, 13, 5, 1, 19, 15, 6, 7, 2, 16, 13, 12, 6, 14, 18, 13, 12, 14, 10, 12];
Lower_Bound = [0, 1, 14, 68, 50, 71, 77, 90, 83, 91, 94, 95, 102, 103, 154, 181, 170, 178, 165, 185, 186, 196, 193, 194, 209, 56, 38, 34, 42, 49, 52, 59, 78, 80, 95, 100, 111, 132, 136, 140, 144, 152, 156, 163, 178, 179, 185, 186, 194, 204, 222, 114, 50, 61, 70, 66, 55, 75, 94, 98, 111, 121, 120, 119, 123, 145, 152, 160, 156, 189, 184, 191, 199, 210, 200, 218, 222, 105, 98, 81, 81, 78, 79, 80, 107, 106, 126, 128, 125, 123, 202, 201, 185, 167, 182, 187, 200, 195, 204, 218, 232, 232, 245, 102, 93, 91, 85, 182, 170, 159, 159, 151, 131, 139, 131, 194, 195, 208, 203, 206, 208, 209, 218, 224, 207, 217, 221, 224, 233, 119, 116, 106, 118, 123, 139, 151, 156, 166, 166, 169, 175, 185, 194, 221, 222, 213, 207, 219, 235, 236, 244, 248, 266, 230, 236, 137, 121, 142, 132, 146, 140, 141, 156, 175, 169, 170, 176, 184, 211, 194, 197, 198, 207, 212, 228, 243, 263, 255, 257, 260, 251, 147, 156, 159, 159, 158, 160, 159, 167, 185, 182, 181, 186, 187, 188, 194, 196, 211, 218, 226, 229, 236, 245, 246, 257, 274, 276, 175, 160, 171, 168, 169, 162, 179, 168, 169, 187, 188, 187, 194, 191, 193, 197, 205, 212, 247, 246, 247, 247, 251, 272, 277, 293, 194, 209, 184, 181, 181, 181, 188, 194, 190, 201, 195, 203, 212, 222, 237, 221, 206, 217, 229, 234, 262, 262, 253, 255, 258, 264, 230, 226, 205, 183, 186, 199, 208, 197, 198, 200, 204, 213, 216, 221, 223, 226, 219, 218, 245, 239, 295, 272, 271, 264, 280, 284, 227, 226, 220, 231, 243, 253, 257, 262, 209, 210, 218, 232, 242, 263, 235, 226, 223, 224, 229, 237, 298, 296, 283, 284, 293, 297, 241, 243, 254, 264, 251, 246, 245, 228, 211, 253, 246, 253, 256, 271, 235, 248, 244, 250, 265, 282, 295, 299, 285, 295, 297];
Upper_Bound = [1, 5, 23, 70, 54, 72, 93, 96, 96, 93, 100, 105, 105, 106, 171, 183, 173, 181, 173, 186, 189, 197, 194, 198, 231, 57, 39, 41, 43, 51, 53, 66, 81, 81, 96, 101, 112, 136, 142, 141, 149, 166, 162, 165, 181, 180, 190, 188, 196, 205, 238, 115, 54, 63, 73, 68, 57, 76, 97, 99, 113, 128, 124, 121, 132, 146, 155, 163, 158, 190, 193, 193, 209, 213, 202, 219, 234, 112, 100, 83, 96, 79, 87, 84, 112, 113, 137, 129, 127, 137, 203, 204, 192, 168, 183, 188, 201, 197, 207, 225, 234, 240, 249, 111, 95, 93, 94, 185, 173, 161, 160, 153, 132, 147, 143, 206, 199, 210, 205, 208, 209, 218, 226, 227, 223, 220, 224, 229, 236, 123, 117, 108, 120, 127, 142, 157, 172, 177, 169, 174, 177, 186, 198, 224, 227, 214, 212, 220, 236, 254, 245, 250, 277, 237, 237, 146, 125, 144, 139, 152, 141, 146, 163, 176, 179, 171, 180, 199, 213, 199, 206, 206, 215, 214, 229, 245, 267, 265, 258, 265, 259, 152, 158, 171, 160, 170, 161, 161, 170, 186, 187, 184, 188, 193, 190, 197, 199, 213, 219, 242, 230, 241, 249, 264, 263, 280, 278, 179, 166, 176, 175, 180, 163, 187, 169, 171, 188, 190, 190, 202, 201, 197, 215, 206, 214, 256, 251, 251, 249, 253, 274, 282, 297, 203, 214, 186, 193, 183, 182, 199, 196, 192, 209, 199, 206, 235, 231, 242, 226, 208, 223, 233, 250, 264, 265, 256, 262, 259, 267, 236, 230, 207, 184, 199, 200, 217, 209, 201, 202, 206, 214, 217, 233, 224, 230, 223, 243, 249, 240, 301, 278, 273, 265, 281, 287, 231, 227, 224, 233, 244, 254, 265, 280, 218, 212, 224, 237, 243, 264, 242, 232, 225, 230, 230, 240, 302, 298, 284, 288, 294, 298, 253, 247, 255, 269, 254, 250, 256, 231, 215, 254, 247, 254, 259, 276, 248, 255, 248, 257, 277, 283, 302, 305, 286, 296, 310];
Start = 1;
End = 336;
Time = 310;
